100
32
7
32
32
7
15
21
19
31
27
14
32
30
8
26
13
27
11
8
30
27
16
15
2
13
12
4
15
15
25
12
10
18
14
11
9
16
12
29
11
10
3
2
4
13
11
3
12
11
1
11
1
2
1
17
2
4
7
17
1
3
1
6
18
17
1
2
1
29
1
2
4
17
3
18
4
2
2
21
8
7
21
3
2
3
2
4
1
20
5
4
18
6
2
9
22
3
3
4
19
13